AI/problems/TCP/instances/exemple.atsp
NAME:  example
TYPE: ATSP
COMMENT: 5 city problem (Repetto)
DIMENSION:  5
EDGE_WEIGHT_TYPE: EXPLICIT
EDGE_WEIGHT_FORMAT: FULL_MATRIX 
EDGE_WEIGHT_SECTION
 9999    21    9    21    1
   21  9999    4     8    20
    9     4 9999     6    7
   21     8    6  9999    11
    1    20    7    11    9999
EOF
