AI/problems/TCP/instances/exemple.txt
0 21 9 21 1
21 0 4 8 20
9 4 0 6 7
21 8 6 0 11
1 20 7 11 0